n=20;
t=24;
profit=[3 8 7 2 7 3 9 5 9 3 10 10 5 6 5 8 6 4 2 4];
length=[2 2 5 4 5 4 3 4 3 1 4 2 3 5 2 1 1 5 2 3];
min_deliver=[23 3 7 13 7 19 16 10 4 9 19 2 16 9 13 3 5 10 2 13];
max_deliver=[24 6 12 18 11 19 20 12 4 9 23 6 20 12 18 7 8 10 3 15];
surface=[5 5 5 2 5 1 3 5 3 1 5 4 2 3 3 4 3 5 2 1];
surface_capacity=18;
